
set I:= 2	3	4 5 6	7 	8	9	10	11 12 13	14	15 16	17	18	19	20 21 22 
23 24 25 26 27 28 29 30 31 32 33 34 35 36 37 38 39 40 41 42 43 44 45 46 47 48 49 50 51
52 53 54 55 56 57 58 59 60 61 62 63 64 ;

set Nodos:= 1 2	3	4 5 6	7 	8	9	10	11 12 13	14	15 16	17	18	19	20 21 22
23 24 25 26 27 28 29 30 31 32 33 34 35 36 37 38 39 40 41 42 43 44 45 46 47 48 49 50 51
52 53 54 55 56 57 58 59 60 61 62 63 64;

set K:= 1 2 3;
set R:= A B C;
set T:= A B C;


param: xcoord	ycoord :=
1	97	33
2	57	81
3	1	33
4	55	57
5	29	37
6	21	39
7	93	37
8	5	91
9	25	11
10	47	37
11	87	25
12	67	65
13	71	89
14	67	15
15	45	79
16	71	57
17	29	1
18	59	79
19	93	83
20	47	41
21	51	41
22	23	93
23	87	95
24	39	45
25	45	7
26	85	51
27	35	93
28	47	79
29	59	91
30	83	51
31	49	65
32	21	55
33	51	21
34	69	43
35	37	41
36	37	95
37	5	71
38	37	47
39	83	73
40	17	71
41	5	71
42	81	17
43	59	33
44	63	87
45	21	77
46	71	51
47	21	17
48	9	7
49	65	43
50	25	63
51	13	57
52	47	43
53	77	9
54	57	55
55	21	33
56	27	59
57	83	9
58	63	69
59	9	35
60	25	55
61	33	3
62	53	11
63	51	49
64	9	23


;

param Q:=
1   20000
2   20000
3   20000
;

param P:=
A   5000
B   10000
C   20000
;


param alfa:=
A   1
B    .70
C    .30
;

param q:  A   B   C:=
1	0	0	0
2	500	0	0
3	0	750	0
4	0	0	1150
5	1150	0	0
6	0	1200	0
7	0	0	850
8	50	0	0
9	0	200	0
10	0	0	100
11	250	0	0
12	0	900	0
13	0	0	450
14	400	0	0
15	0	1150	0
16	0	0	650
17	200	0	0
18	0	900	0
19	0	0	800
20	1300	0	0
21	0	800	0
22	0	0	200
23	1150	0	0
24	0	400	0
25	0	0	1300
26	800	0	0
27	0	250	0
28	0	0	100
29	1050	0	0
30	0	1150	0
31	0	0	400
32	250	0	0
33	0	400	0
34	0	0	1300
35	600	0	0
36	0	400	0
37	0	0	150
38	400	0	0
39	0	950	0
40	0	0	800
41	100	0	0
42	0	150	0
43	0	0	850
44	350	0	0
45	0	250	0
46	0	0	400
47	200	0	0
48	0	600	0
49	0	0	950
50	950	0	0
51	0	1300	0
52	0	0	1200
53	250	0	0
54	0	400	0
55	0	0	1100
56	450	0	0
57	0	900	0
58	0	0	950
59	750	0	0
60	0	250	0
61	0	0	550
62	600	0	0
63	0	2700	0
64	0	0	400

;

param a:  A   B   C:=
1	0	0	0
2	1	0	0
3	0	1	0
4	0	0	1
5	1	0	0
6	0	1	0
7	0	0	1
8	1	0	0
9	0	1	0
10	0	0	1
11	1	0	0
12	0	1	0
13	0	0	1
14	1	0	0
15	0	1	0
16	0	0	1
17	1	0	0
18	0	1	0
19	0	0	1
20	1	0	0
21	0	1	0
22	0	0	1
23	1	0	0
24	0	1	0
25	0	0	1
26	1	0	0
27	0	1	0
28	0	0	1
29	1	0	0
30	0	1	0
31	0	0	1
32	1	0	0
33	0	1	0
34	0	0	1
35	1	0	0
36	0	1	0
37	0	0	1
38	1	0	0
39	0	1	0
40	0	0	1
41	1	0	0
42	0	1	0
43	0	0	1
44	1	0	0
45	0	1	0
46	0	0	1
47	1	0	0
48	0	1	0
49	0	0	1
50	1	0	0
51	0	1	0
52	0	0	1
53	1	0	0
54	0	1	0
55	0	0	1
56	1	0	0
57	0	1	0
58	0	0	1
59	1	0	0
60	0	1	0
61	0	0	1
62	1	0	0
63	0	1	0
64 0 0 1

;

param qu :=
1	0
2	500
3	750
4	1150
5	1150
6	1200
7	850
8	50
9	200
10	100
11	250
12	900
13	450
14	400
15	1150
16	650
17	200
18	900
19	800
20	1300
21	800
22	200
23	1150
24	400
25	1300
26	800
27	250
28	100
29	1050
30	1150
31	400
32	250
33	400
34	1300
35	600
36	400
37	150
38	400
39	950
40	800
41	100
42	150
43	850
44	350
45	250
46	400
47	200
48	600
49	950
50	950
51	1300
52	1200
53	250
54	400
55	1100
56	450
57	900
58	950
59	750
60	250
61	550
62	600
63	2700
64	400


;

set IT:=
(	2	,	A	)
(	3	,	B	)
(	4	,	C	)
(	5	,	A	)
(	6	,	B	)
(	7	,	C	)
(	8	,	A	)
(	9	,	B	)
(	10	,	C	)
(	11	,	A	)
(	12	,	B	)
(	13	,	C	)
(	14	,	A	)
(	15	,	B	)
(	16	,	C	)
(	17	,	A	)
(	18	,	B	)
(	19	,	C	)
(	20	,	A	)
(	21	,	B	)
(	22	,	C	)
(	23	,	A	)
(	24	,	B	)
(	25	,	C	)
(	26	,	A	)
(	27	,	B	)
(	28	,	C	)
(	29	,	A	)
(	30	,	B	)
(	31	,	C	)
(	32	,	A	)
(	33	,	B	)
(	34	,	C	)
(	35	,	A	)
(	36	,	B	)
(	37	,	C	)
(	38	,	A	)
(	39	,	B	)
(	40	,	C	)
(	41	,	A	)
(	42	,	B	)
(	43	,	C	)
(	44	,	A	)
(	45	,	B	)
(	46	,	C	)
(	47	,	A	)
(	48	,	B	)
(	49	,	C	)
(	50	,	A	)
(	51	,	B	)
(	52	,	C	)
(	53	,	A	)
(	54	,	B	)
(	55	,	C	)
(	56	,	A	)
(	57	,	B	)
(	58	,	C	)
(	59	,	A	)
(	60	,	B	)
(	61	,	C	)
(	62	,	A	)
(	63	,	B	)
(64, C)

;